PHONE = { DESK, CELLULAR };

minUnits = [ 100, 100 ];
profitPerUnit = [ 12, 20 ];

MACHINE = { ASSEMBLY, PAINTING };

maxTime = [ 400, 490 ];
maxOvertime = [ 40, 0 ];

timePerUnit = [|
  12, 24, |
  30, 24  |];

overtimeCostPerHour = 2;
